0 0 0 0
0 1 0 0
0 2 0 11
0 3 0 0
0 4 0 5
0 5 0 11
0 6 0 58
0 7 0 1
0 8 0 72
0 9 0 14
0 10 0 58
0 11 0 26
0 12 0 30
0 13 0 63
0 14 0 15
0 15 0 20
0 16 0 15
0 17 0 26
0 18 0 74
0 19 0 47
0 20 0 85
0 21 0 47
0 22 0 16
0 23 0 46
0 24 0 155
0 25 0 2
0 26 0 122
0 27 0 90
0 28 0 62
0 29 0 27
0 30 0 119
0 31 0 50
0 32 0 5
0 33 0 6
0 34 0 78
0 35 0 77
0 36 0 77
0 37 0 42
0 38 0 70
0 39 0 127
0 40 0 86
0 41 0 96
0 42 0 40
0 43 0 27
0 44 0 144
0 45 0 127
0 46 0 54
0 47 0 7
0 48 0 133
0 49 0 171
0 50 0 128
0 51 0 86
0 52 0 150
0 53 0 40
0 54 0 137
0 55 0 99
0 56 0 30
0 57 0 49
0 58 0 30
0 59 0 134
0 60 0 19
0 61 0 108
0 62 0 40
0 63 0 111
0 64 0 140
0 65 0 85
0 66 0 160
0 67 0 93
0 68 0 117
0 69 0 157
0 70 0 63
0 71 0 63
0 72 0 135
0 73 0 155
0 74 0 161
0 75 0 49
0 76 0 77
0 77 0 164
0 78 0 153
0 79 0 107
0 80 0 47
0 81 0 144
0 82 0 164
0 83 0 120
0 84 0 140
0 85 0 170
0 86 0 169
0 87 0 178
0 88 0 100
0 89 0 179
0 90 0 109
0 91 0 155
0 92 0 100
0 93 0 178
0 94 0 171
0 95 0 20
0 96 0 127
0 97 0 120
0 98 0 178
0 99 0 186
0 100 0 153
0 101 0 150
0 102 0 91
0 103 0 69
0 104 0 69
0 105 0 122
0 106 0 182
0 107 0 102
0 108 0 186
0 109 0 196
0 110 0 191
0 111 0 186
0 112 0 186
0 113 0 203
0 114 0 196
0 115 0 117
0 116 0 200
0 117 0 195
0 118 0 204
0 119 0 198
0 120 0 204
0 121 0 208
